sol/ETP_Problem08.sol
check_feasible()=True
penality()=43.14587122590035
timeslot_of_exam=[8, 7, 10, 10, 1, 5, 9, 6, 3, 10, 4, 10, 10, 10, 10, 10, 2, 7, 5, 1, 6, 9, 2, 3, 6, 10, 4, 4, 4, 10, 10, 1, 7, 3, 8, 1, 9, 1, 4, 4, 8, 5, 2, 1, 8, 3, 5, 2, 3, 6, 3, 10, 2, 1, 5, 10, 3, 3, 5, 6, 8, 2, 3, 5, 1, 7, 7, 6, 2, 1, 10, 3, 4, 1, 2, 2, 7, 1, 5, 8, 9, 8, 2, 7, 4, 7, 7, 2, 10, 4, 5, 1, 5, 6, 9, 3, 3, 8, 10, 9, 4, 10, 9, 10, 10, 10, 5, 9, 10, 5, 3, 7, 3, 1, 6, 9, 3, 10, 10, 3, 5, 4, 2, 1, 9, 10, 5, 5, 3, 2, 8, 3, 10, 1, 9, 1, 7, 2, 5, 10, 10, 7, 4, 6, 3, 6, 3, 1, 2, 10, 2, 5, 8, 4, 10, 1, 7, 10, 1, 8, 8, 2, 1, 6, 6, 10, 2, 3, 4, 2, 7, 1, 6, 10, 4, 8, 10, 10, 1, 8, 10, 2, 10, 4]
exams_at_timeslot=[[5, 20, 32, 36, 38, 44, 54, 65, 70, 74, 78, 92, 114, 124, 134, 136, 148, 156, 159, 163, 172, 179], [17, 23, 43, 48, 53, 62, 69, 75, 76, 83, 88, 123, 130, 138, 149, 151, 162, 167, 170, 182], [9, 24, 34, 46, 49, 51, 57, 58, 63, 72, 96, 97, 111, 113, 117, 120, 129, 132, 145, 147, 168], [11, 27, 28, 29, 39, 40, 73, 85, 90, 101, 122, 143, 154, 169, 175, 184], [6, 19, 42, 47, 55, 59, 64, 79, 91, 93, 107, 110, 121, 127, 128, 139, 152], [8, 21, 25, 50, 60, 68, 94, 115, 144, 146, 164, 165, 173], [2, 18, 33, 66, 67, 77, 84, 86, 87, 112, 137, 142, 157, 171], [1, 35, 41, 45, 61, 80, 82, 98, 131, 153, 160, 161, 176, 180], [7, 22, 37, 81, 95, 100, 103, 108, 116, 125, 135], [3, 4, 10, 12, 13, 14, 15, 16, 26, 30, 31, 52, 56, 71, 89, 99, 102, 104, 105, 106, 109, 118, 119, 126, 133, 140, 141, 150, 155, 158, 166, 174, 177, 178, 181, 183]]